4 10
92 100 89 104 
0 22 4 99 22 83 41 60 59 31 41 66 64 99 33 90 41 7 69 18 65 4
1 59 64 75 7 84 41 100 84 8 93 25 29 6 78 22 21 12 75 91 85 1
2 60 62 61 33 69 3 70 82 77 51 20 5 83 28 51 25 46 38 42 61 3
3 44 11 21 66 5 12 82 67 7 5 33 76 89 33 79 52 87 36 72 12 4
4 2 60 78 3 47 53 15 4 45 96 26 8 86 80 63 11 72 22 86 22 3
5 25 54 34 100 34 55 43 1 34 92 93 85 71 23 94 95 42 45 79 16 2
6 42 13 90 40 39 66 95 93 91 90 72 78 61 12 16 72 3 86 94 40 4
7 56 92 96 30 29 77 69 15 75 78 56 49 35 41 80 72 89 40 25 63 4
8 7 53 59 20 20 86 72 53 73 1 42 56 59 41 20 80 48 81 45 42 3
9 39 10 7 57 68 11 36 66 67 16 41 50 26 57 61 29 25 28 57 70 4
